networks/zoo_84_1033/zoo_84_1033-lower.txt
Number of groups: 42
Flow 1: {1 4 0} {4 2 0} {2 44 0} 
Flow 2: {4 46 0} 
Flow 3: {1 36 0} {36 35 0} {35 32 0} {32 5 0} {5 47 0} 
Flow 4: {36 8 0} {8 50 0} 
Flow 5: {8 24 0} {24 15 0} {15 57 0} 
Flow 6: {24 16 0} {16 58 0} 
Flow 7: {35 18 0} {18 60 0} 
Flow 8: {24 66 0} 
Flow 9: {32 74 0} 
Flow 10: {35 77 0} 
Flow 11: {36 78 0} 
Flow 12: {36 38 0} {38 80 0} 
Flow 13: {4 1 0} {1 43 0} 
Flow 13: {2 4 0} Flow 15: {2 34 0} {34 32 0} Flow 16: {2 8 0} {8 42 0} {42 6 0} {6 48 0} 
Flow 17: {2 7 0} {7 49 0} 
Flow 19: {6 9 0} {9 51 0} 
Flow 20: {8 30 0} {30 10 0} {10 52 0} 
Flow 21: {35 11 0} {11 53 0} 
Flow 21: {32 35 0} Flow 22: {35 12 0} {12 54 0} 
Flow 23: {24 13 0} {13 55 0} 
Flow 24: {24 14 0} {14 56 0} 
Flow 27: {5 17 0} {17 59 0} 
Flow 29: {35 20 0} {20 62 0} 
Flow 30: {35 22 0} {22 64 0} 
Flow 31: {2 3 0} {3 23 0} {23 65 0} 
Flow 33: {4 31 0} {31 25 0} {25 67 0} 
Flow 34: {38 26 0} {26 68 0} 
Flow 34: {32 38 0} Flow 35: {32 27 0} {27 69 0} 
Flow 36: {10 28 0} {28 70 0} 
Flow 37: {30 29 0} {29 71 0} 
Flow 38: {30 72 0} 
Flow 39: {31 73 0} 
Flow 41: {8 33 0} {33 75 0} 
Flow 42: {34 76 0} 
Flow 44: {4 36 0} Flow 45: {35 37 0} {37 79 0} 
Flow 47: {8 40 0} {40 82 0} 
Flow 48: {40 41 0} {41 83 0} 
Flow 49: {42 84 0} 
Flow 50: {3 2 0} Flow 52: {23 32 0} Flow 67: {23 38 0} Flow 70: {3 45 0} 
Flow 75: {10 9 0} {31 30 0} Flow 86: {2 21 0} {21 63 0} 
Flow 98: {31 33 0} Flow 104: {38 39 0} {39 81 0} 
Flow 108: {5 32 0} {32 34 0} {34 2 0} Flow 110: {5 6 0} {6 42 0} {42 8 0} Flow 114: {35 36 0} Flow 116: {8 36 0} {36 1 0} Flow 117: {8 2 0} Flow 118: {6 29 0} {29 30 0} {30 31 0} {31 4 0} Flow 119: {6 5 0} Flow 122: {9 10 0} Flow 130: {32 23 0} Flow 143: {7 2 0} Flow 146: {7 8 0} Flow 163: {8 7 0} Flow 174: {35 19 0} {19 61 0} 
Flow 180: {8 31 0} Flow 198: {9 6 0} Flow 199: {10 30 0} Flow 212: {30 8 0} Flow 226: {31 38 0} {38 23 0} Flow 229: {9 29 0} Flow 234: {38 37 0} Flow 239: {11 35 0} Flow 240: {36 4 0} Flow 255: {35 38 0} Flow 256: {12 35 0} Flow 269: {13 24 0} {24 8 0} Flow 283: {14 24 0} Flow 293: {15 24 0} Flow 328: {24 41 0} Flow 330: {16 24 0} Flow 366: {17 5 0} Flow 386: {26 25 0} Flow 389: {9 28 0} Flow 392: {38 31 0} Flow 403: {18 35 0} Flow 440: {19 35 0} Flow 453: {20 35 0} Flow 467: {21 2 0} Flow 484: {22 35 0} Flow 522: {38 36 0} Flow 523: {23 3 0} Flow 542: {23 27 0} Flow 594: {25 31 0} Flow 596: {25 26 0} {26 38 0} {38 32 0} Flow 597: {31 8 0} Flow 601: {38 35 0} Flow 625: {27 23 0} Flow 627: {27 32 0} Flow 645: {28 10 0} Flow 647: {28 9 0} Flow 668: {29 6 0} Flow 671: {29 9 0} Flow 792: {33 8 0} Flow 793: {33 31 0} Flow 903: {37 35 0} Flow 911: {37 38 0} Flow 982: {39 23 0} Flow 983: {39 38 0} Flow 992: {40 8 0} Flow 1002: {41 24 0} Time taken running everything: 0 seconds
