networks/zoo_84_1033/zoo_84_1033-lower.sol
<?xml version = "1.0" encoding="UTF-8" standalone="yes"?>
<CPLEXSolution version="1.2">
 <header
   problemName="networks/zoo_84_1033/zoo_84_1033-lower.lp"
   solutionName="incumbent"
   solutionIndex="-1"
   objectiveValue="42"
   solutionTypeValue="3"
   solutionTypeString="primal"
   solutionStatusValue="101"
   solutionStatusString="integer optimal solution"
   solutionMethodString="mip"
   primalFeasible="1"
   dualFeasible="1"
   MIPNodes="0"
   MIPIterations="0"
   writeLevel="3"/>
 <quality
   epInt="1.0000000000000001e-05"
   epRHS="9.9999999999999995e-07"
   maxIntInfeas="0"
   maxPrimalInfeas="0"
   maxX="1"
   maxSlack="1"/>
 <variables>
  <variable name="Y(1,2)" index="1" value="1"/>
  <variable name="Y(2,4)" index="87" value="1"/>
  <variable name="Y(3,5)" index="172" value="1"/>
  <variable name="Y(4,8)" index="259" value="1"/>
  <variable name="Y(5,15)" index="350" value="1"/>
  <variable name="Y(6,16)" index="435" value="1"/>
  <variable name="Y(7,18)" index="521" value="1"/>
  <variable name="Y(8,24)" index="611" value="1"/>
  <variable name="Y(9,32)" index="703" value="1"/>
  <variable name="Y(10,35)" index="790" value="1"/>
  <variable name="Y(11,36)" index="875" value="1"/>
  <variable name="Y(12,38)" index="961" value="1"/>
  <variable name="Y(13,1)" index="1008" value="1"/>
  <variable name="Y(16,6)" index="1265" value="1"/>
  <variable name="Y(17,7)" index="1350" value="1"/>
  <variable name="Y(19,9)" index="1520" value="1"/>
  <variable name="Y(20,10)" index="1605" value="1"/>
  <variable name="Y(21,11)" index="1690" value="1"/>
  <variable name="Y(22,12)" index="1775" value="1"/>
  <variable name="Y(23,13)" index="1860" value="1"/>
  <variable name="Y(24,14)" index="1945" value="1"/>
  <variable name="Y(27,17)" index="2200" value="1"/>
  <variable name="Y(29,20)" index="2371" value="1"/>
  <variable name="Y(30,22)" index="2457" value="1"/>
  <variable name="Y(31,23)" index="2542" value="1"/>
  <variable name="Y(33,25)" index="2712" value="1"/>
  <variable name="Y(34,26)" index="2797" value="1"/>
  <variable name="Y(35,27)" index="2882" value="1"/>
  <variable name="Y(36,28)" index="2967" value="1"/>
  <variable name="Y(37,29)" index="3052" value="1"/>
  <variable name="Y(38,30)" index="3137" value="1"/>
  <variable name="Y(39,31)" index="3222" value="1"/>
  <variable name="Y(41,33)" index="3392" value="1"/>
  <variable name="Y(42,34)" index="3477" value="1"/>
  <variable name="Y(45,37)" index="3732" value="1"/>
  <variable name="Y(47,40)" index="3903" value="1"/>
  <variable name="Y(48,41)" index="3988" value="1"/>
  <variable name="Y(49,42)" index="4073" value="1"/>
  <variable name="Y(70,3)" index="5798" value="1"/>
  <variable name="Y(86,21)" index="7160" value="1"/>
  <variable name="Y(104,39)" index="8690" value="1"/>
  <variable name="Y(174,19)" index="14550" value="1"/>
  <variable name="X(1,4,1)" index="86772" value="1"/>
  <variable name="X(1,36,3)" index="87807" value="1"/>
  <variable name="X(1,43,13)" index="88850" value="1"/>
  <variable name="X(2,3,31)" index="89901" value="1"/>
  <variable name="X(2,4,13)" index="90916" value="1"/>
  <variable name="X(2,7,17)" index="91953" value="1"/>
  <variable name="X(2,8,16)" index="92985" value="1"/>
  <variable name="X(2,21,86)" index="94088" value="1"/>
  <variable name="X(2,34,15)" index="95050" value="1"/>
  <variable name="X(2,44,1)" index="96069" value="1"/>
  <variable name="X(3,2,50)" index="97151" value="1"/>
  <variable name="X(3,23,31)" index="98165" value="1"/>
  <variable name="X(3,45,70)" index="99237" value="1"/>
  <variable name="X(4,1,13)" index="100213" value="1"/>
  <variable name="X(4,2,1)" index="101234" value="1"/>
  <variable name="X(4,31,33)" index="102299" value="1"/>
  <variable name="X(4,36,44)" index="103343" value="1"/>
  <variable name="X(4,46,2)" index="104334" value="1"/>
  <variable name="X(5,6,110)" index="105475" value="1"/>
  <variable name="X(5,17,27)" index="106425" value="1"/>
  <variable name="X(5,32,108)" index="107539" value="1"/>
  <variable name="X(5,47,3)" index="108467" value="1"/>
  <variable name="X(6,5,119)" index="109616" value="1"/>
  <variable name="X(6,9,19)" index="110549" value="1"/>
  <variable name="X(6,29,118)" index="111681" value="1"/>
  <variable name="X(6,42,110)" index="112706" value="1"/>
  <variable name="X(6,48,16)" index="113645" value="1"/>
  <variable name="X(7,2,143)" index="114805" value="1"/>
  <variable name="X(7,8,146)" index="115841" value="1"/>
  <variable name="X(7,49,17)" index="116745" value="1"/>
  <variable name="X(8,2,117)" index="117878" value="1"/>
  <variable name="X(8,7,163)" index="118957" value="1"/>
  <variable name="X(8,24,5)" index="119832" value="1"/>
  <variable name="X(8,30,20)" index="120880" value="1"/>
  <variable name="X(8,31,180)" index="122073" value="1"/>
  <variable name="X(8,33,41)" index="122967" value="1"/>
  <variable name="X(8,36,116)" index="124075" value="1"/>
  <variable name="X(8,40,47)" index="125039" value="1"/>
  <variable name="X(8,42,16)" index="126041" value="1"/>
  <variable name="X(8,50,4)" index="127062" value="1"/>
  <variable name="X(9,6,198)" index="128289" value="1"/>
  <variable name="X(9,10,122)" index="129246" value="1"/>
  <variable name="X(9,28,389)" index="130546" value="1"/>
  <variable name="X(9,29,229)" index="131419" value="1"/>
  <variable name="X(9,51,19)" index="132242" value="1"/>
  <variable name="X(10,9,75)" index="133331" value="1"/>
  <variable name="X(10,28,36)" index="134325" value="1"/>
  <variable name="X(10,30,199)" index="135521" value="1"/>
  <variable name="X(10,52,20)" index="136375" value="1"/>
  <variable name="X(11,35,239)" index="137627" value="1"/>
  <variable name="X(11,53,21)" index="138442" value="1"/>
  <variable name="X(12,35,256)" index="139710" value="1"/>
  <variable name="X(12,54,22)" index="140509" value="1"/>
  <variable name="X(13,24,269)" index="141789" value="1"/>
  <variable name="X(13,55,23)" index="142576" value="1"/>
  <variable name="X(14,24,283)" index="143869" value="1"/>
  <variable name="X(14,56,24)" index="144643" value="1"/>
  <variable name="X(15,24,293)" index="145945" value="1"/>
  <variable name="X(15,57,5)" index="146690" value="1"/>
  <variable name="X(16,24,330)" index="148048" value="1"/>
  <variable name="X(16,58,6)" index="148757" value="1"/>
  <variable name="X(17,5,366)" index="150150" value="1"/>
  <variable name="X(17,59,27)" index="150844" value="1"/>
  <variable name="X(18,35,403)" index="152253" value="1"/>
  <variable name="X(18,60,7)" index="152890" value="1"/>
  <variable name="X(19,35,440)" index="154356" value="1"/>
  <variable name="X(19,61,174)" index="155123" value="1"/>
  <variable name="X(20,35,453)" index="156435" value="1"/>
  <variable name="X(20,62,29)" index="157044" value="1"/>
  <variable name="X(21,2,467)" index="158515" value="1"/>
  <variable name="X(21,63,86)" index="159167" value="1"/>
  <variable name="X(22,35,484)" index="160598" value="1"/>
  <variable name="X(22,64,30)" index="161177" value="1"/>
  <variable name="X(23,3,523)" index="162703" value="1"/>
  <variable name="X(23,27,542)" index="163755" value="1"/>
  <variable name="X(23,32,52)" index="164298" value="1"/>
  <variable name="X(23,38,67)" index="165346" value="1"/>
  <variable name="X(23,65,31)" index="166343" value="1"/>
  <variable name="X(24,8,269)" index="167614" value="1"/>
  <variable name="X(24,13,23)" index="168401" value="1"/>
  <variable name="X(24,14,24)" index="169435" value="1"/>
  <variable name="X(24,15,5)" index="170449" value="1"/>
  <variable name="X(24,16,6)" index="171483" value="1"/>
  <variable name="X(24,41,328)" index="172838" value="1"/>
  <variable name="X(24,66,8)" index="173551" value="1"/>
  <variable name="X(25,26,596)" index="175172" value="1"/>
  <variable name="X(25,31,594)" index="176203" value="1"/>
  <variable name="X(25,67,33)" index="176675" value="1"/>
  <variable name="X(26,25,386)" index="178061" value="1"/>
  <variable name="X(26,38,596)" index="179304" value="1"/>
  <variable name="X(26,68,34)" index="179775" value="1"/>
  <variable name="X(27,23,625)" index="181399" value="1"/>
  <variable name="X(27,32,627)" index="182434" value="1"/>
  <variable name="X(27,69,35)" index="182875" value="1"/>
  <variable name="X(28,9,647)" index="184520" value="1"/>
  <variable name="X(28,10,645)" index="185551" value="1"/>
  <variable name="X(28,70,36)" index="185975" value="1"/>
  <variable name="X(29,6,668)" index="187640" value="1"/>
  <variable name="X(29,9,671)" index="188676" value="1"/>
  <variable name="X(29,30,118)" index="189156" value="1"/>
  <variable name="X(29,71,37)" index="190108" value="1"/>
  <variable name="X(30,8,212)" index="191316" value="1"/>
  <variable name="X(30,10,20)" index="192157" value="1"/>
  <variable name="X(30,29,37)" index="193207" value="1"/>
  <variable name="X(30,31,118)" index="194321" value="1"/>
  <variable name="X(30,72,38)" index="195274" value="1"/>
  <variable name="X(31,4,118)" index="196387" value="1"/>
  <variable name="X(31,8,597)" index="197899" value="1"/>
  <variable name="X(31,25,33)" index="198368" value="1"/>
  <variable name="X(31,30,75)" index="199443" value="1"/>
  <variable name="X(31,33,98)" index="200499" value="1"/>
  <variable name="X(31,38,226)" index="201660" value="1"/>
  <variable name="X(31,73,39)" index="202506" value="1"/>
  <variable name="X(32,5,3)" index="203503" value="1"/>
  <variable name="X(32,23,130)" index="204663" value="1"/>
  <variable name="X(32,27,35)" index="205601" value="1"/>
  <variable name="X(32,34,108)" index="206707" value="1"/>
  <variable name="X(32,35,21)" index="207653" value="1"/>
  <variable name="X(32,38,34)" index="208699" value="1"/>
  <variable name="X(32,74,9)" index="209707" value="1"/>
  <variable name="X(33,8,792)" index="211523" value="1"/>
  <variable name="X(33,31,793)" index="212557" value="1"/>
  <variable name="X(33,75,41)" index="212838" value="1"/>
  <variable name="X(34,2,108)" index="213938" value="1"/>
  <variable name="X(34,32,15)" index="214878" value="1"/>
  <variable name="X(34,76,42)" index="215938" value="1"/>
  <variable name="X(35,11,21)" index="216950" value="1"/>
  <variable name="X(35,12,22)" index="217984" value="1"/>
  <variable name="X(35,18,7)" index="219002" value="1"/>
  <variable name="X(35,19,174)" index="220202" value="1"/>
  <variable name="X(35,20,29)" index="221090" value="1"/>
  <variable name="X(35,22,30)" index="222124" value="1"/>
  <variable name="X(35,32,3)" index="223130" value="1"/>
  <variable name="X(35,36,114)" index="224274" value="1"/>
  <variable name="X(35,37,45)" index="225238" value="1"/>
  <variable name="X(35,38,255)" index="226481" value="1"/>
  <variable name="X(35,77,10)" index="227269" value="1"/>
  <variable name="X(36,1,116)" index="228408" value="1"/>
  <variable name="X(36,4,240)" index="229565" value="1"/>
  <variable name="X(36,8,4)" index="230362" value="1"/>
  <variable name="X(36,35,3)" index="231394" value="1"/>
  <variable name="X(36,38,12)" index="232436" value="1"/>
  <variable name="X(36,78,11)" index="233468" value="1"/>
  <variable name="X(37,35,903)" index="235393" value="1"/>
  <variable name="X(37,38,911)" index="236434" value="1"/>
  <variable name="X(37,79,45)" index="236601" value="1"/>
  <variable name="X(38,23,226)" index="237815" value="1"/>
  <variable name="X(38,26,34)" index="238656" value="1"/>
  <variable name="X(38,31,392)" index="240047" value="1"/>
  <variable name="X(38,32,596)" index="241284" value="1"/>
  <variable name="X(38,35,601)" index="242322" value="1"/>
  <variable name="X(38,36,522)" index="243276" value="1"/>
  <variable name="X(38,37,234)" index="244021" value="1"/>
  <variable name="X(38,39,104)" index="244924" value="1"/>
  <variable name="X(38,80,12)" index="245865" value="1"/>
  <variable name="X(39,23,982)" index="247868" value="1"/>
  <variable name="X(39,38,983)" index="248902" value="1"/>
  <variable name="X(39,81,104)" index="249056" value="1"/>
  <variable name="X(40,8,992)" index="250977" value="1"/>
  <variable name="X(40,41,48)" index="251066" value="1"/>
  <variable name="X(40,82,47)" index="252098" value="1"/>
  <variable name="X(41,24,1002)" index="254086" value="1"/>
  <variable name="X(41,83,48)" index="254165" value="1"/>
  <variable name="X(42,6,16)" index="255166" value="1"/>
  <variable name="X(42,8,110)" index="256293" value="1"/>
  <variable name="X(42,84,49)" index="257265" value="1"/>
 </variables>
</CPLEXSolution>
